words_hard_train/8890.qaiger
aag 87 21 0 1 66
2
4
12
14
22
24
32
34
42
44
54
68
72
80
90
98
110
118
126
154
158
175
6 2 5
8 3 4
10 7 9
16 12 15
18 13 14
20 17 19
26 22 25
28 23 24
30 27 29
36 32 35
38 33 34
40 37 39
46 42 45
48 43 44
50 47 49
52 40 50
56 52 55
58 30 56
60 20 58
62 11 61
64 10 60
66 63 65
70 66 69
74 65 72
76 64 73
78 75 77
82 78 81
84 71 83
86 31 57
88 87 59
92 89 90
94 21 59
96 95 61
100 97 98
102 93 101
104 88 91
106 53 54
108 107 57
112 108 111
114 105 113
116 110 54
120 41 118
122 121 50
124 120 51
128 125 127
130 123 129
132 117 131
134 132 53
136 114 135
138 102 137
140 96 99
142 139 141
144 67 68
146 143 145
148 84 147
150 79 80
152 149 151
156 152 154
160 76 158
162 156 161
164 77 159
166 165 157
168 163 167
170 153 155
172 170 161
174 169 173
i0 2 y1[5]
i1 2 y2[5]
i2 2 y1[4]
i3 2 y2[4]
i4 2 y1[3]
i5 2 y2[3]
i6 2 y1[0]
i7 2 y2[0]
i8 2 y1[1]
i9 2 y2[1]
i10 2 y2[2]
i11 1 x1[5]
i12 2 y2[6]
i13 1 x1[6]
i14 1 x1[3]
i15 1 x1[4]
i16 1 x1[2]
i17 1 x1[0]
i18 1 x1[1]
i19 2 y2[7]
i20 1 x1[7]
o0 bv[0]
c
simplified
  >
    xor
      2 y2
      and
        2 y1
        59
    invert
      1 x1
