words_hard_train/8890.qaiger.qdimacs
p cnf 87 199
a 34 40 45 79 49 55 59 63 0
e 1 2 3 4 5 6 7 8 9 10 11 12 13 14 15 16 17 18 19 20 21 22 23 24 25 26 27 28 29 30 31 32 33 35 36 37 38 39 41 42 43 44 46 47 48 50 51 52 53 54 56 57 58 60 61 62 64 65 66 67 68 69 70 71 72 73 74 75 76 77 78 80 81 82 83 84 85 86 87 0
-1 2 3 0
1 -3 0
-2 -3 0
1 -2 4 0
-1 -4 0
2 -4 0
3 4 5 0
-3 -5 0
-4 -5 0
-6 7 8 0
6 -8 0
-7 -8 0
6 -7 9 0
-6 -9 0
7 -9 0
8 9 10 0
-8 -10 0
-9 -10 0
-11 12 13 0
11 -13 0
-12 -13 0
11 -12 14 0
-11 -14 0
12 -14 0
13 14 15 0
-13 -15 0
-14 -15 0
-16 17 18 0
16 -18 0
-17 -18 0
16 -17 19 0
-16 -19 0
17 -19 0
18 19 20 0
-18 -20 0
-19 -20 0
-21 22 23 0
21 -23 0
-22 -23 0
21 -22 24 0
-21 -24 0
22 -24 0
23 24 25 0
-23 -25 0
-24 -25 0
-20 -25 26 0
20 -26 0
25 -26 0
-26 27 28 0
26 -28 0
-27 -28 0
-15 -28 29 0
15 -29 0
28 -29 0
-10 -29 30 0
10 -30 0
29 -30 0
5 30 31 0
-5 -31 0
-30 -31 0
-5 -30 32 0
5 -32 0
30 -32 0
31 32 33 0
-31 -33 0
-32 -33 0
-33 34 35 0
33 -35 0
-34 -35 0
32 -36 37 0
-32 -37 0
36 -37 0
-32 36 38 0
32 -38 0
-36 -38 0
37 38 39 0
-37 -39 0
-38 -39 0
-39 40 41 0
39 -41 0
-40 -41 0
35 41 42 0
-35 -42 0
-41 -42 0
15 28 43 0
-15 -43 0
-28 -43 0
43 29 44 0
-43 -44 0
-29 -44 0
44 -45 46 0
-44 -46 0
45 -46 0
10 29 47 0
-10 -47 0
-29 -47 0
47 30 48 0
-47 -48 0
-30 -48 0
48 -49 50 0
-48 -50 0
49 -50 0
46 50 51 0
-46 -51 0
-50 -51 0
-44 45 52 0
44 -52 0
-45 -52 0
26 -27 53 0
-26 -53 0
27 -53 0
53 28 54 0
-53 -54 0
-28 -54 0
-54 55 56 0
54 -56 0
-55 -56 0
52 56 57 0
-52 -57 0
-56 -57 0
-55 -27 58 0
55 -58 0
27 -58 0
20 -59 60 0
-20 -60 0
59 -60 0
60 -25 61 0
-60 -61 0
25 -61 0
-60 25 62 0
60 -62 0
-25 -62 0
62 63 64 0
-62 -64 0
-63 -64 0
61 64 65 0
-61 -65 0
-64 -65 0
58 65 66 0
-58 -66 0
-65 -66 0
-66 26 67 0
66 -67 0
-26 -67 0
-57 67 68 0
57 -68 0
-67 -68 0
-51 68 69 0
51 -69 0
-68 -69 0
-48 49 70 0
48 -70 0
-49 -70 0
69 70 71 0
-69 -71 0
-70 -71 0
33 -34 72 0
-33 -72 0
34 -72 0
71 72 73 0
-71 -73 0
-72 -73 0
-42 73 74 0
42 -74 0
-73 -74 0
39 -40 75 0
-39 -75 0
40 -75 0
74 75 76 0
-74 -76 0
-75 -76 0
-76 -77 78 0
76 -78 0
77 -78 0
-38 -79 80 0
38 -80 0
79 -80 0
-78 80 81 0
78 -81 0
-80 -81 0
38 79 82 0
-38 -82 0
-79 -82 0
82 78 83 0
-82 -83 0
-78 -83 0
81 83 84 0
-81 -84 0
-83 -84 0
76 77 85 0
-76 -85 0
-77 -85 0
-85 80 86 0
85 -86 0
-80 -86 0
84 86 87 0
-84 -87 0
-86 -87 0
-87 0
